(declare-const delta___cost Int)
(declare-const delta_i Int)
(declare-const delta_tmp___0 Int)
(assert (exists
         ((|tmp___0'?1| Int) (|i'?2| Int) (|__cost'?3| Int) (phi_i?4 Int)
            (havoc?5 Int) (i?6 Int) (tmp___0?7 Int) (m?8 Int) (__cost?9 Int))
         (and (<= (- i?6) 0) (< (- m?8) 0) (< (- i?6) 0)
                (or (< havoc?5 0) (< 0 havoc?5)) (<= (- __cost?9) 0)
                (<= (+ (- __cost?9) -1) 0)
                (or (and (< (+ (- m?8) i?6) 0) (= (+ (- phi_i?4) i?6 -1) 0))
                      (and (<= (+ m?8 (- i?6)) 0)
                             (= (+ (- phi_i?4) (- m?8) i?6) 0)))
                (= (+ |tmp___0'?1| (- havoc?5)) 0)
                (= (+ |i'?2| (- phi_i?4)) 0)
                (= (+ |__cost'?3| (- __cost?9) -1) 0)
                (= delta___cost (+ |__cost'?3| (- __cost?9)))
                (= delta_i (+ |i'?2| (- i?6)))
                (= delta_tmp___0 (+ |tmp___0'?1| (- tmp___0?7))))))
(check-sat)
